n = 9;
m = 8;
dias_regimen_alto_permitidos = 3;
porcentaje_regimen_alto = 80;
capacidad = [800, 300, 400];
costo_produccion = [45, 60, 55];
demanda = [| 180, 170, 160, 150, 140, 130, 120, 110, 100
           | 90, 80, 70, 60, 100, 90, 80, 70, 60
           | 80, 70, 60, 50, 100, 90, 100, 110, 120
           | 70, 60, 50, 100, 90, 80, 70, 60, 50
           | 60, 50, 100, 90, 80, 70, 60, 50, 100
           | 50, 100, 90, 80, 70, 60, 50, 100, 90
           | 80, 70, 60, 50, 100, 90, 80, 70, 60
           | 1670, 1660, 1650, 1600, 1690, 1680, 1670, 1660, 1650 |];
pago_por_mw = [100, 90, 80, 70, 90, 80, 70, 80];
G = 45;
